
Gurobi 13.0.1 (linux64) logging started Fri Mar 20 19:50:23 2026

Set parameter LogFile to value "logs/120B_6F_deterministic_2026-03-20_19h48m58s.log"
Set parameter Threads to value 1
Gurobi Optimizer version 13.0.1 build v13.0.1rc0 (linux64 - "Linux Mint 22")

CPU model: 12th Gen Intel(R) Core(TM) i7-12700, instruction set [SSE2|AVX|AVX2]
Thread count: 20 physical cores, 20 logical processors, using up to 1 threads

Non-default parameters:
TimeLimit  400
SoftMemLimit  10
Threads  1

Optimize a model with 171880 rows, 4392130 columns and 13236647 nonzeros (Max)
Model fingerprint: 0xfae23890
Model has 4302040 linear objective coefficients
Variable types: 36130 continuous, 4356000 integer (4356000 binary)
Coefficient statistics:
  Matrix range     [1e-04, 2e+04]
  Objective range  [1e+01, 3e+03]
  Bounds range     [1e+00, 1e+05]
  RHS range        [1e+00, 1e+05]

Presolve removed 112771 rows and 3482108 columns (presolve time = 5s)...
Presolve removed 112771 rows and 3482108 columns (presolve time = 10s)...
Presolve removed 112771 rows and 3482108 columns (presolve time = 15s)...
Presolve removed 112771 rows and 3482108 columns (presolve time = 20s)...
Presolve removed 112771 rows and 3482108 columns (presolve time = 25s)...
Presolve removed 112771 rows and 3482108 columns (presolve time = 30s)...
Presolve removed 112771 rows and 3482108 columns (presolve time = 35s)...
Presolve removed 112771 rows and 3482108 columns (presolve time = 40s)...
Presolve removed 112771 rows and 3482108 columns (presolve time = 45s)...
Presolve removed 112771 rows and 3482108 columns (presolve time = 50s)...
Presolve removed 112771 rows and 3482108 columns (presolve time = 55s)...
Presolve removed 112771 rows and 3482108 columns (presolve time = 60s)...
Presolve removed 112771 rows and 3482108 columns (presolve time = 65s)...
Presolve removed 112771 rows and 3482108 columns (presolve time = 70s)...
Presolve removed 112771 rows and 3482108 columns (presolve time = 75s)...
Presolve removed 112771 rows and 3482108 columns (presolve time = 80s)...
Presolve removed 112771 rows and 3482108 columns (presolve time = 85s)...
Presolve removed 112771 rows and 3482108 columns (presolve time = 90s)...
Presolve removed 112771 rows and 3482108 columns (presolve time = 95s)...
Presolve removed 112771 rows and 3482108 columns (presolve time = 100s)...
Presolve removed 112771 rows and 3482108 columns (presolve time = 105s)...
Presolve removed 112771 rows and 3482108 columns (presolve time = 113s)...
Presolve removed 112771 rows and 3482108 columns (presolve time = 124s)...
Presolve removed 112771 rows and 3482108 columns (presolve time = 137s)...
Presolve removed 112771 rows and 3482108 columns (presolve time = 160s)...
Presolve removed 112771 rows and 3482108 columns (presolve time = 165s)...
Presolve removed 112771 rows and 3482108 columns (presolve time = 171s)...
Presolve removed 112771 rows and 3482108 columns (presolve time = 175s)...
Presolve removed 112771 rows and 3482108 columns (presolve time = 180s)...
Presolve removed 112771 rows and 3482108 columns (presolve time = 194s)...
Presolve removed 112771 rows and 3482108 columns (presolve time = 211s)...
Presolve removed 112771 rows and 3482108 columns (presolve time = 230s)...
Presolve removed 112771 rows and 3482108 columns (presolve time = 240s)...
Presolve removed 112771 rows and 3482108 columns (presolve time = 246s)...
Presolve removed 112771 rows and 3482108 columns (presolve time = 264s)...
Presolve removed 112771 rows and 3482108 columns (presolve time = 272s)...
Presolve removed 112771 rows and 3482108 columns (presolve time = 280s)...
Presolve removed 112771 rows and 3482108 columns (presolve time = 288s)...
Presolve removed 112771 rows and 3482108 columns (presolve time = 291s)...
Presolve removed 112771 rows and 3482108 columns (presolve time = 298s)...
Presolve removed 112771 rows and 3482108 columns (presolve time = 302s)...
Presolve removed 112771 rows and 3482108 columns (presolve time = 324s)...
Presolve removed 112771 rows and 3482108 columns (presolve time = 327s)...
Presolve removed 112771 rows and 3482108 columns (presolve time = 332s)...
Presolve removed 112771 rows and 3482108 columns (presolve time = 351s)...
Presolve removed 112771 rows and 3482108 columns (presolve time = 366s)...
Presolve removed 112771 rows and 3482108 columns (presolve time = 384s)...
Presolve removed 112771 rows and 3482108 columns (presolve time = 404s)...
Presolve removed 112771 rows and 3482108 columns (presolve time = 417s)...
Presolve removed 112771 rows and 3482108 columns (presolve time = 441s)...
Presolve removed 112771 rows and 3482108 columns (presolve time = 461s)...
Presolve removed 112771 rows and 3482108 columns (presolve time = 492s)...
Presolve removed 112771 rows and 3482108 columns (presolve time = 496s)...
Presolve removed 112761 rows and 3482088 columns
Presolve time: 498.79s

Explored 0 nodes (0 simplex iterations) in 499.54 seconds (139.98 work units)
Thread count was 1 (of 20 available processors)

Solution count 0

Time limit reached
Best objective -, best bound -, gap -
